unsat
(define-fun f ((x0 (BitVec 64)) (x1 (BitVec 64))) (BitVec 64) (bvsub x0 #b0000000000000000000000000000000000000000000000000000000000000011))
(define-fun f ((x0 (BitVec 64)) (x1 (BitVec 64))) (BitVec 64) (bvsub x0 #b0000000000000000000000000000000000000000000000000000000000000011))
int-arith31.sl running time : 0 m .026976129 s
times : .026976129
